CMPL model generation - running

CMPL version: 1.11.0
Authors: Thomas Schleiff, Mike Steglich
Distributed under the GPLv3 

create model instance ...
write model instance ...
CMPL model generation - finished

Solver - running


Welcome to IBM(R) ILOG(R) CPLEX(R) Interactive Optimizer 12.7.1.0
  with Simplex, Mixed Integer & Barrier Optimizers
5725-A06 5725-A29 5724-Y48 5724-Y49 5724-Y54 5724-Y55 5655-Y21
Copyright IBM Corp. 1988, 2017.  All Rights Reserved.

Type 'help' for a list of available commands.
Type 'help' followed by a command name for more
information on commands.

CPLEX> Specified objective sense: MINIMIZE
Selected objective  name:  line[1]
Selected RHS        name:  RHS
Selected bound      name:  BOUND
Problem '/tmp/cmpl.T24499.mps' read.
Read time = 0.07 sec. (10.13 ticks)
CPLEX> CPXPARAM_Read_APIEncoding                        "UTF-8"
Tried aggregator 3 times.
MIP Presolve eliminated 23869 rows and 37314 columns.
MIP Presolve modified 425 coefficients.
Aggregator did 881 substitutions.
Reduced MIP has 3172 rows, 4260 columns, and 12600 nonzeros.
Reduced MIP has 4050 binaries, 0 generals, 0 SOSs, and 0 indicators.
Presolve time = 0.07 sec. (50.58 ticks)
Found incumbent of value 2138.385032 after 0.15 sec. (91.73 ticks)
Probing fixed 1 vars, tightened 0 bounds.
Probing time = 0.01 sec. (4.66 ticks)
Tried aggregator 1 time.
MIP Presolve eliminated 0 rows and 1 columns.
MIP Presolve modified 4 coefficients.
Reduced MIP has 3172 rows, 4259 columns, and 12598 nonzeros.
Reduced MIP has 4259 binaries, 0 generals, 0 SOSs, and 0 indicators.
Presolve time = 0.02 sec. (10.33 ticks)
Probing time = 0.01 sec. (2.89 ticks)
Clique table members: 7017.
MIP emphasis: balance optimality and feasibility.
MIP search method: dynamic search.
Parallel mode: none, using 1 thread.
Root relaxation solution time = 0.01 sec. (8.64 ticks)

        Nodes                                         Cuts/
   Node  Left     Objective  IInf  Best Integer    Best Bound    ItCnt     Gap

*     0+    0                         2138.3850      -14.0137           100.66%
      0     0      450.1609     2     2138.3850      450.1609      348   78.95%
*     0+    0                          452.1242      450.1609             0.43%
*     0+    0                          450.2066      450.1609             0.01%
      0     0        cutoff            450.2066                    348    0.00%
Elapsed time = 0.23 sec. (138.55 ticks, tree = 0.01 MB, solutions = 3)

Root node processing (before b&c):
  Real time             =    0.24 sec. (140.44 ticks)
Sequential b&c:
  Real time             =    0.00 sec. (0.00 ticks)
                          ------------
Total (root+branch&cut) =    0.24 sec. (140.44 ticks)

Solution pool: 3 solutions saved.

MIP - Integer optimal solution:  Objective =  4.5020662500e+02
Solution time =    0.24 sec.  Iterations = 348  Nodes = 0
Deterministic time = 140.57 ticks  (588.11 ticks/sec)

CPLEX> Incumbent solution written to file '/tmp/cmpl.T24499.gsol'.
CPLEX> 
CMPL: Time used for model generation: 1 seconds
CMPL: Time used for solving the model: 1 seconds


Solution written to ASCII file: results/output_generated_conf_0.7/2017-07-03-5/fair-nonlinear.sol

Solver - finished
